24
3 9 43 39 
3 16 2 40 
2 31 8 
3 48 10 25 
2 49 29 
2 38 60 
2 13 53 
2 36 54 
3 50 47 52 
3 51 55 19 
3 23 58 27 
3 14 15 24 
2 45 28 
3 18 59 7 
3 5 41 35 
3 17 22 30 
2 12 33 
2 21 26 
3 44 56 42 
3 11 57 1 
2 34 6 
3 46 32 20 
1 37 
2 3 4 
